13,8	0,0	8,6	9,8	0,0	0,0	0,0	0,0	0,0	18,7
15,3	9,9	0,0	10,5	17,6	0,0	0,0	8,4	0,0	0,0
0,0	0,0	6,4	0,0	14,9	16,7	0,0	0,0	7,2	0,0
8,0	0,0	9,9	0,0	0,0	0,0	8,5	0,0	0,0	0,0
0,0	14,1	0,0	7,1	9,5	0,0	0,0	19,2	0,0	0,0
0,0	18,9	7,6	0,0	18,2	9,7	0,0	0,0	16,5	0,0
0,0	11,1	0,0	8,8	0,0	0,0	13,3	0,0	0,0	15,2
7,4	0,0	13,1	0,0	0,0	0,0	0,0	0,0	0,0	6,7
0,0	8,6	0,0	12,6	11,3	0,0	0,0	12,4	0,0	0,0
0,0	0,0	16,5	0,0	0,0	6,2	8,3	0,0	0,0	6,2
									
4,4	4,3	3,7	4,2	4,3	3,1	4,5	2,9	3,5	3,6
